TCS_Benchmarks/redos_fix/snort1_output_distinct_2876_2875_0_0.txt
([^}]*)([^}]*)
([^}]*)([dD][oO][cC][uU][mM][eE][nN][tT]\.[cC][rR][eE][aA][tT][eE][eE][lL][eE][mM][eE][nN][tT]\('[iI][nN][pP][uU][tT]'\))([^}]*)